     Program PWSCF v.6.7MaX starts on  8Sep2021 at  2:38:23

     R & G space division:  proc/nbgrp/npool/nimage =      80
     Reading input from relax-sym.in

     Current dimensions of program PWSCF are:
     Max number of different atomic species (ntypx) = 10
     Max number of k-points (npk) =  40000
     Max angular momentum in pseudopotentials (lmaxx) =  3
     Message from routine read_pp_mesh:
     mesh size missing, using the one in header
     Message from routine read_pp_mesh:
     mesh size missing, using the one in header
     Message from routine read_pp_mesh:
     mesh size missing, using the one in header

     IMPORTANT: XC functional enforced from input :
     Exchange-correlation= SCAN
                           (   0   0   0   0   0 263 267)
     Any further DFT definition will be discarded
     Please, verify this is what you really want

     Subspace diagonalization in iterative solution of the eigenvalue problem:
     a serial algorithm will be used

     Message from routine setup:
     using ibrav=0 with symmetry is DISCOURAGED, use correct ibrav instead

     bravais-lattice index     =            0
     lattice parameter (alat)  =       7.2943  a.u.
     unit-cell volume          =     432.3542 (a.u.)^3
     number of atoms/cell      =            5
     number of atomic types    =            3
     number of electrons       =        44.00
     number of Kohn-Sham states=           22
     kinetic-energy cutoff     =     150.0000  Ry
     charge density cutoff     =     600.0000  Ry
     scf convergence threshold =      1.0E-08
     mixing beta               =       0.7000
     number of iterations used =            8  plain     mixing
     energy convergence thresh.=      1.0E-06
     force convergence thresh. =      1.0E-05
     press convergence thresh. =      5.0E-01
     Exchange-correlation= SCAN
                           (   0   0   0   0   0 263 267)
     nstep                     =           50

     celldm(1)=   7.294343  celldm(2)=   0.000000  celldm(3)=   0.000000
     celldm(4)=   0.000000  celldm(5)=   0.000000  celldm(6)=   0.000000

     crystal axes: (cart. coord. in units of alat)
               a(1) = (   1.000000   0.000000   0.000000 )
               a(2) = (   0.000000   1.000000   0.000000 )
               a(3) = (   0.000000   0.000000   1.113990 )

     reciprocal axes: (cart. coord. in units 2 pi/alat)
               b(1) = (  1.000000  0.000000  0.000000 )
               b(2) = (  0.000000  1.000000  0.000000 )
               b(3) = (  0.000000  0.000000  0.897674 )

     PseudoPot. # 1 for Pb read from file:
     /home/pinchenx/data.gpfs/softwares/QuantumEspresso/q-e-qe-6.4.1/pseudo/Pb_ONCV_PBE-1.2.upf
     MD5 check sum: 7f27c247474026287e0dbe0f3167d60b
     Pseudo is Norm-conserving, Zval = 14.0
     Generated using ONCVPSP code by D. R. Hamann
     Using radial grid of  602 points,  8 beta functions with:
                l(1) =   0
                l(2) =   0
                l(3) =   1
                l(4) =   1
                l(5) =   2
                l(6) =   2
                l(7) =   3
                l(8) =   3

     PseudoPot. # 2 for Ti read from file:
     /home/pinchenx/data.gpfs/softwares/QuantumEspresso/q-e-qe-6.4.1/pseudo/Ti_ONCV_PBE-1.2.upf
     MD5 check sum: 1aea57736bd12dcfee93c97d0b9b5968
     Pseudo is Norm-conserving, Zval = 12.0
     Generated using ONCVPSP code by D. R. Hamann
     Using radial grid of  602 points,  6 beta functions with:
                l(1) =   0
                l(2) =   0
                l(3) =   1
                l(4) =   1
                l(5) =   2
                l(6) =   2

     PseudoPot. # 3 for O  read from file:
     /home/pinchenx/data.gpfs/softwares/QuantumEspresso/q-e-qe-6.4.1/pseudo/O_ONCV_PBE-1.2.upf
     MD5 check sum: e36c48deb68f4e355fffe4602be2c42c
     Pseudo is Norm-conserving, Zval =  6.0
     Generated using ONCVPSP code by D. R. Hamann
     Using radial grid of  602 points,  4 beta functions with:
                l(1) =   0
                l(2) =   0
                l(3) =   1
                l(4) =   1

     atomic species   valence    mass     pseudopotential
        Pb            14.00   207.20000     Pb( 1.00)
        Ti            12.00    47.86700     Ti( 1.00)
        O              6.00    15.99900     O ( 1.00)

      8 Sym. Ops. (no inversion) found

   Cartesian axes

     site n.     atom                  positions (alat units)
         1           Pb  tau(   1) = (   0.0000000   0.0000000   0.0000000  )
         2           Ti  tau(   2) = (   0.5000000   0.5000000   0.6088083  )
         3           O   tau(   3) = (   0.5000000   0.5000000   0.1554404  )
         4           O   tau(   4) = (   0.0000000   0.5000000   0.7124352  )
         5           O   tau(   5) = (   0.5000000   0.0000000   0.7124352  )

     number of k points=    18
                       cart. coord. in units 2pi/alat
        k(    1) = (   0.0000000   0.0000000   0.0000000), wk =   0.0312500
        k(    2) = (   0.0000000   0.0000000   0.2244186), wk =   0.0625000
        k(    3) = (   0.0000000   0.0000000  -0.4488372), wk =   0.0312500
        k(    4) = (   0.0000000   0.2500000   0.0000000), wk =   0.1250000
        k(    5) = (   0.0000000   0.2500000   0.2244186), wk =   0.2500000
        k(    6) = (   0.0000000   0.2500000  -0.4488372), wk =   0.1250000
        k(    7) = (   0.0000000  -0.5000000   0.0000000), wk =   0.0625000
        k(    8) = (   0.0000000  -0.5000000   0.2244186), wk =   0.1250000
        k(    9) = (   0.0000000  -0.5000000  -0.4488372), wk =   0.0625000
        k(   10) = (   0.2500000   0.2500000   0.0000000), wk =   0.1250000
        k(   11) = (   0.2500000   0.2500000   0.2244186), wk =   0.2500000
        k(   12) = (   0.2500000   0.2500000  -0.4488372), wk =   0.1250000
        k(   13) = (   0.2500000  -0.5000000   0.0000000), wk =   0.1250000
        k(   14) = (   0.2500000  -0.5000000   0.2244186), wk =   0.2500000
        k(   15) = (   0.2500000  -0.5000000  -0.4488372), wk =   0.1250000
        k(   16) = (  -0.5000000  -0.5000000   0.0000000), wk =   0.0312500
        k(   17) = (  -0.5000000  -0.5000000   0.2244186), wk =   0.0625000
        k(   18) = (  -0.5000000  -0.5000000  -0.4488372), wk =   0.0312500

     Initial potential from superposition of free atoms

     starting charge   43.78536, renormalised to   44.00000
     Starting wfcs are random

     Self-consistent Calculation

     iteration #  1     ecut=   150.00 Ry     beta= 0.70
     Davidson diagonalization with overlap
     ethr =  1.00E-02,  avg # of iterations = 11.3

     total energy              =    -323.29592568 Ry
     estimated scf accuracy    <      67.48483016 Ry

[...]

     End of self-consistent calculation

          k = 0.0000 0.0000 0.0000 ( 13463 PWs)   bands (ev):

   -49.0528 -24.1912 -24.0027 -24.0027  -8.9018  -7.8461  -7.5244  -4.4634
    -4.4634  -4.4014  -4.3742  -4.3405   4.0321   6.4640   6.4640   7.1355
     8.0256   8.0256   8.3782   8.4555   9.1047   9.1047

[...]

          k =-0.5000-0.5000 0.0000 ( 13440 PWs)   bands (ev):

[...]

     highest occupied level (ev):    10.5909

!    total energy              =    -324.04294845 Ry
     estimated scf accuracy    <          9.3E-09 Ry

     The total energy is the sum of the following terms:
     one-electron contribution =     -82.06267923 Ry
     hartree contribution      =      67.40863584 Ry
     xc contribution           =     -49.04451036 Ry
     ewald contribution        =    -260.34439469 Ry

     convergence has been achieved in  37 iterations

     Forces acting on atoms (cartesian axes, Ry/au):

     atom    1 type  1   force =     0.00000000    0.00000000    0.00065037
     atom    2 type  2   force =     0.00000000    0.00000000   -0.00018843
     atom    3 type  3   force =     0.00000000    0.00000000   -0.00360856
     atom    4 type  3   force =     0.00000000    0.00000000    0.00157331
     atom    5 type  3   force =     0.00000000    0.00000000    0.00157331

     Total force =     0.004293     Total SCF correction =     0.000038

     Computing stress (Cartesian axis) and pressure

          total   stress  (Ry/bohr**3)                   (kbar)     P=        6.48
   0.00002799   0.00000000   0.00000000            4.12        0.00        0.00
   0.00000000   0.00002799   0.00000000            0.00        4.12        0.00
   0.00000000   0.00000000   0.00007623            0.00        0.00       11.21

     BFGS Geometry Optimization
     Energy error            =      0.0E+00
     Gradient error          =      3.6E-03
     Cell gradient error     =      7.6E-05

     number of scf cycles    =   1
     number of bfgs steps    =   0

     enthalpy new            =    -324.0429484467 Ry

     new trust radius        =       0.0079249909 bohr
     new conv_thr            =       0.0000000100 Ry

     new unit-cell volume =    433.78450 a.u.^3 (    64.28023 Ang^3 )
     density =      7.82900 g/cm^3

CELL_PARAMETERS (angstrom)
   3.862700796   0.000000000   0.000000000
   0.000000000   3.862700796   0.000000000
   0.000000000   0.000000000   4.308194405

ATOMIC_POSITIONS (angstrom)
Pb            0.0000000000        0.0000000000        0.0003448169
Ti            1.9313503981        1.9313503981        2.3543784366
O             1.9313503981        1.9313503981        0.5992302000
O             0.0000000000        1.9313503981        2.7560747522
O             1.9313503981        0.0000000000        2.7560747522

     Writing output data file ./pwscf.save/
     NEW-OLD atomic charge density approx. for the potential
     extrapolated charge   44.14437, renormalised to   44.00000

[...]

     Energy error            =      5.1E-05
     Gradient error          =      3.8E-03
     Cell gradient error     =      1.6E-05

[...]

     enthalpy old            =    -324.0429484467 Ry
     enthalpy new            =    -324.0429991700 Ry

     CASE: enthalpy_new < enthalpy_old

[...]

     WARNING: bfgs curvature condition failed, Theta= 0.997
     new trust radius        =       0.0043883287 bohr
     new conv_thr            =       0.0000000024 Ry

[...]

     Threshold (ethr) on eigenvalues was too large:
     Diagonalizing with lowered threshold

     Davidson diagonalization with overlap
     ethr =  9.58E-09,  avg # of iterations =  2.0

[...]

     number of scf cycles    =  16
     number of bfgs steps    =  15

     enthalpy old            =    -324.0432641453 Ry
     enthalpy new            =    -324.0432641737 Ry

     CASE: enthalpy_new < enthalpy_old

     small trust_radius: resetting bfgs history

     new trust radius        =       0.0000368148 bohr
     new conv_thr            =            1.0E-10 Ry

     new unit-cell volume =    438.41616 a.u.^3 (    64.96657 Ang^3 )
     density =      7.74629 g/cm^3

[...]

ATOMIC_POSITIONS (angstrom)
Pb            0.0000000000        0.0000000000       -0.0241602544
Ti            1.9228932379        1.9228932379        2.3864463344
O             1.9228932379        1.9228932379        0.6375114620
O             0.0000000000        1.9228932379        2.8160658027
O             1.9228932379        0.0000000000        2.8160658027

     Writing output data file ./pwscf.save/
     NEW-OLD atomic charge density approx. for the potential
     extrapolated charge   43.99961, renormalised to   44.00000

[...]

     Threshold (ethr) on eigenvalues was too large:
     Diagonalizing with lowered threshold

     Davidson diagonalization with overlap
     ethr =  2.34E-10,  avg # of iterations =  2.7

[...]

     Total force =     0.000012     Total SCF correction =     0.000014
     SCF correction compared to forces is large: reduce conv_thr to get better values

[...]

     Energy error            =      1.2E-09
     Gradient error          =      8.3E-06
     Cell gradient error     =      1.1E-07

     bfgs converged in  17 scf cycles and  16 bfgs steps
     (criteria: energy <  1.0E-06 Ry, force <  1.0E-05Ry/Bohr, cell <  5.0E-01kbar)

     End of BFGS Geometry Optimization

     Final enthalpy =    -324.0432641749 Ry

     File ./pwscf.bfgs deleted, as requested
Begin final coordinates
     new unit-cell volume =    438.41616 a.u.^3 (    64.96657 Ang^3 )
     density =      7.74629 g/cm^3

CELL_PARAMETERS (angstrom)
   3.845786476   0.000000000   0.000000000
   0.000000000   3.845786476   0.000000000
   0.000000000   0.000000000   4.392579330

ATOMIC_POSITIONS (angstrom)
Pb            0.0000000000        0.0000000000       -0.0241602544
Ti            1.9228932379        1.9228932379        2.3864463344
O             1.9228932379        1.9228932379        0.6375114620
O             0.0000000000        1.9228932379        2.8160658027
O             1.9228932379        0.0000000000        2.8160658027
End final coordinates

     Writing output data file ./pwscf.save/

     Final scf calculation at the relaxed structure.
     The G-vectors are recalculated for the final unit cell
     Results may differ from those at the preceding step.

     bravais-lattice index     =            0
     lattice parameter (alat)  =       7.2943  a.u.
     unit-cell volume          =     438.4162 (a.u.)^3
     number of atoms/cell      =            5
     number of atomic types    =            3
     number of electrons       =        44.00
     number of Kohn-Sham states=           22
     kinetic-energy cutoff     =     150.0000  Ry
     charge density cutoff     =     600.0000  Ry
     scf convergence threshold =      1.0E-10
     mixing beta               =       0.7000
     number of iterations used =            8  plain     mixing
     press convergence thresh. =      5.0E-01
     Exchange-correlation= SCAN
                           (   0   0   0   0   0 263 267)

     celldm(1)=   7.294343  celldm(2)=   0.000000  celldm(3)=   0.000000
     celldm(4)=   0.000000  celldm(5)=   0.000000  celldm(6)=   0.000000

     crystal axes: (cart. coord. in units of alat)
               a(1) = (   0.996318   0.000000   0.000000 )
               a(2) = (   0.000000   0.996318   0.000000 )
               a(3) = (   0.000000   0.000000   1.137974 )

     reciprocal axes: (cart. coord. in units 2 pi/alat)
               b(1) = (  1.003696  0.000000  0.000000 )
               b(2) = (  0.000000  1.003696  0.000000 )
               b(3) = (  0.000000  0.000000  0.878755 )

     PseudoPot. # 1 for Pb read from file:
     /home/pinchenx/data.gpfs/softwares/QuantumEspresso/q-e-qe-6.4.1/pseudo/Pb_ONCV_PBE-1.2.upf
     MD5 check sum: 7f27c247474026287e0dbe0f3167d60b
     Pseudo is Norm-conserving, Zval = 14.0
     Generated using ONCVPSP code by D. R. Hamann
     Using radial grid of  602 points,  8 beta functions with:
                l(1) =   0
                l(2) =   0
                l(3) =   1
                l(4) =   1
                l(5) =   2
                l(6) =   2
                l(7) =   3
                l(8) =   3

     PseudoPot. # 2 for Ti read from file:
     /home/pinchenx/data.gpfs/softwares/QuantumEspresso/q-e-qe-6.4.1/pseudo/Ti_ONCV_PBE-1.2.upf
     MD5 check sum: 1aea57736bd12dcfee93c97d0b9b5968
     Pseudo is Norm-conserving, Zval = 12.0
     Generated using ONCVPSP code by D. R. Hamann
     Using radial grid of  602 points,  6 beta functions with:
                l(1) =   0
                l(2) =   0
                l(3) =   1
                l(4) =   1
                l(5) =   2
                l(6) =   2

     PseudoPot. # 3 for O  read from file:
     /home/pinchenx/data.gpfs/softwares/QuantumEspresso/q-e-qe-6.4.1/pseudo/O_ONCV_PBE-1.2.upf
     MD5 check sum: e36c48deb68f4e355fffe4602be2c42c
     Pseudo is Norm-conserving, Zval =  6.0
     Generated using ONCVPSP code by D. R. Hamann
     Using radial grid of  602 points,  4 beta functions with:
                l(1) =   0
                l(2) =   0
                l(3) =   1
                l(4) =   1

     atomic species   valence    mass     pseudopotential
        Pb            14.00   207.20000     Pb( 1.00)
        Ti            12.00    47.86700     Ti( 1.00)
        O              6.00    15.99900     O ( 1.00)

      8 Sym. Ops. (no inversion) found

   Cartesian axes

     site n.     atom                  positions (alat units)
         1           Pb  tau(   1) = (   0.0000000   0.0000000  -0.0062591  )
         2           Ti  tau(   2) = (   0.4981589   0.4981589   0.6182503  )
         3           O   tau(   3) = (   0.4981589   0.4981589   0.1651584  )
         4           O   tau(   4) = (   0.0000000   0.4981589   0.7295507  )
         5           O   tau(   5) = (   0.4981589   0.0000000   0.7295507  )

     number of k points=    18
                       cart. coord. in units 2pi/alat
        k(    1) = (   0.0000000   0.0000000   0.0000000), wk =   0.0312500
        k(    2) = (   0.0000000   0.0000000   0.2196887), wk =   0.0625000
        k(    3) = (   0.0000000   0.0000000  -0.4393774), wk =   0.0312500
        k(    4) = (   0.0000000   0.2509240   0.0000000), wk =   0.1250000
        k(    5) = (   0.0000000   0.2509240   0.2196887), wk =   0.2500000
        k(    6) = (   0.0000000   0.2509240  -0.4393774), wk =   0.1250000
        k(    7) = (   0.0000000  -0.5018479   0.0000000), wk =   0.0625000
        k(    8) = (   0.0000000  -0.5018479   0.2196887), wk =   0.1250000
        k(    9) = (   0.0000000  -0.5018479  -0.4393774), wk =   0.0625000
        k(   10) = (   0.2509240   0.2509240   0.0000000), wk =   0.1250000
        k(   11) = (   0.2509240   0.2509240   0.2196887), wk =   0.2500000
        k(   12) = (   0.2509240   0.2509240  -0.4393774), wk =   0.1250000
        k(   13) = (   0.2509240  -0.5018479   0.0000000), wk =   0.1250000
        k(   14) = (   0.2509240  -0.5018479   0.2196887), wk =   0.2500000
        k(   15) = (   0.2509240  -0.5018479  -0.4393774), wk =   0.1250000
        k(   16) = (  -0.5018479  -0.5018479   0.0000000), wk =   0.0312500
        k(   17) = (  -0.5018479  -0.5018479   0.2196887), wk =   0.0625000
        k(   18) = (  -0.5018479  -0.5018479  -0.4393774), wk =   0.0312500

     Initial potential from superposition of free atoms

     starting charge   43.78536, renormalised to   44.00000
     Starting wfcs are random

     Self-consistent Calculation

[...]

     total energy              =    -324.04313852 Ry
     estimated scf accuracy    <          1.1E-10 Ry

     iteration # 47     ecut=   150.00 Ry     beta= 0.70
     Davidson diagonalization with overlap
     ethr =  2.43E-13,  avg # of iterations =  2.3

     End of self-consistent calculation

[...]

          k = 0.2509-0.5018-0.4394 ( 13608 PWs)   bands (ev):

[...]

          k =-0.5018-0.5018-0.4394 ( 13616 PWs)   bands (ev):

   -49.2506 -24.4029 -24.2892 -24.2892  -7.9786  -7.9786  -7.6371  -4.5851
    -4.5680  -4.5135  -4.4266  -4.4266   2.9535   5.2574   5.3138   5.3138
     6.0685   6.3978   6.6173   9.3281   9.3281   9.7881

     highest occupied level (ev):    10.3913

!    total energy              =    -324.04313852 Ry
     estimated scf accuracy    <          3.0E-11 Ry

     The total energy is the sum of the following terms:
     one-electron contribution =     -85.33199409 Ry
     hartree contribution      =      68.68791684 Ry
     xc contribution           =     -49.02987305 Ry
     ewald contribution        =    -258.36918822 Ry

     convergence has been achieved in  47 iterations

     Forces acting on atoms (cartesian axes, Ry/au):

     atom    1 type  1   force =     0.00000000    0.00000000   -0.00011609
     atom    2 type  2   force =     0.00000000    0.00000000   -0.00102697
     atom    3 type  3   force =     0.00000000    0.00000000   -0.00148950
     atom    4 type  3   force =     0.00000000    0.00000000    0.00131628
     atom    5 type  3   force =     0.00000000    0.00000000    0.00131628

     Total force =     0.002598     Total SCF correction =     0.000003

     Computing stress (Cartesian axis) and pressure

          total   stress  (Ry/bohr**3)                   (kbar)     P=       -0.74
  -0.00000412   0.00000000   0.00000000           -0.61        0.00        0.00
   0.00000000  -0.00000412   0.00000000            0.00       -0.61        0.00
   0.00000000   0.00000000  -0.00000686            0.00        0.00       -1.01

     General routines

     Parallel routines

   This run was terminated on:   2:43:56   8Sep2021

   JOB DONE.