     Program PWSCF v.6.7MaX starts on  8Sep2021 at  3:25: 3

     R & G space division:  proc/nbgrp/npool/nimage =      80
     Reading input from PbTiO3.scf

     Current dimensions of program PWSCF are:
     Max number of different atomic species (ntypx) = 10
     Max number of k-points (npk) =  40000
     Max angular momentum in pseudopotentials (lmaxx) =  3
     Message from routine read_pp_mesh:
     mesh size missing, using the one in header
     Message from routine read_pp_mesh:
     mesh size missing, using the one in header
     Message from routine read_pp_mesh:
     mesh size missing, using the one in header

     IMPORTANT: XC functional enforced from input :
     Exchange-correlation= SCAN
                           (   0   0   0   0   0 263 267)
     Any further DFT definition will be discarded
     Please, verify this is what you really want

     Subspace diagonalization in iterative solution of the eigenvalue problem:
     a serial algorithm will be used

     bravais-lattice index     =            0
     lattice parameter (alat)  =       7.2675  a.u.
     unit-cell volume          =     438.4162 (a.u.)^3
     number of atoms/cell      =            5
     number of atomic types    =            3
     number of electrons       =        44.00
     number of Kohn-Sham states=           22
     kinetic-energy cutoff     =     150.0000  Ry
     charge density cutoff     =     600.0000  Ry
     scf convergence threshold =      1.0E-08
     mixing beta               =       0.7000
     number of iterations used =            8  plain     mixing
     Exchange-correlation= SCAN
                           (   0   0   0   0   0 263 267)

     celldm(1)=   7.267483  celldm(2)=   0.000000  celldm(3)=   0.000000
     celldm(4)=   0.000000  celldm(5)=   0.000000  celldm(6)=   0.000000

     crystal axes: (cart. coord. in units of alat)
               a(1) = (   1.000000   0.000000   0.000000 )
               a(2) = (   0.000000   1.000000   0.000000 )
               a(3) = (   0.000000   0.000000   1.142180 )

     reciprocal axes: (cart. coord. in units 2 pi/alat)
               b(1) = (  1.000000  0.000000  0.000000 )
               b(2) = (  0.000000  1.000000  0.000000 )
               b(3) = (  0.000000  0.000000  0.875519 )

     PseudoPot. # 1 for O  read from file:
     /home/pinchenx/data.gpfs/softwares/QuantumEspresso/q-e-qe-6.4.1/pseudo/O_ONCV_PBE-1.2.upf
     MD5 check sum: e36c48deb68f4e355fffe4602be2c42c
     Pseudo is Norm-conserving, Zval =  6.0
     Generated using ONCVPSP code by D. R. Hamann
     Using radial grid of  602 points,  4 beta functions with:
                l(1) =   0
                l(2) =   0
                l(3) =   1
                l(4) =   1

     PseudoPot. # 2 for Ti read from file:
     /home/pinchenx/data.gpfs/softwares/QuantumEspresso/q-e-qe-6.4.1/pseudo/Ti_ONCV_PBE-1.2.upf
     MD5 check sum: 1aea57736bd12dcfee93c97d0b9b5968
     Pseudo is Norm-conserving, Zval = 12.0
     Generated using ONCVPSP code by D. R. Hamann
     Using radial grid of  602 points,  6 beta functions with:
                l(1) =   0
                l(2) =   0
                l(3) =   1
                l(4) =   1
                l(5) =   2
                l(6) =   2

     PseudoPot. # 3 for Pb read from file:
     /home/pinchenx/data.gpfs/softwares/QuantumEspresso/q-e-qe-6.4.1/pseudo/Pb_ONCV_PBE-1.2.upf
     MD5 check sum: 7f27c247474026287e0dbe0f3167d60b
     Pseudo is Norm-conserving, Zval = 14.0
     Generated using ONCVPSP code by D. R. Hamann
     Using radial grid of  602 points,  8 beta functions with:
                l(1) =   0
                l(2) =   0
                l(3) =   1
                l(4) =   1
                l(5) =   2
                l(6) =   2
                l(7) =   3
                l(8) =   3

     atomic species   valence    mass     pseudopotential
        O              6.00    15.99900     O ( 1.00)
        Ti            12.00    47.86700     Ti( 1.00)
        Pb            14.00   207.20000     Pb( 1.00)

     No symmetry found

   Cartesian axes

     site n.     atom                  positions (alat units)
         1           Pb  tau(   1) = (   0.0000000   0.0000000  -0.0062823  )
         2           Ti  tau(   2) = (   0.5000000   0.5000000   0.6205353  )
         3           O   tau(   3) = (   0.5000000   0.5000000   0.1657688  )
         4           O   tau(   4) = (   0.0000000   0.5000000   0.7322471  )
         5           O   tau(   5) = (   0.5000000   0.0000000   0.7322471  )

     number of k points=    64
                       cart. coord. in units 2pi/alat
        k(    1) = (   0.0000000   0.0000000   0.0000000), wk =   0.0312500
        k(    2) = (   0.0000000   0.0000000   0.2188797), wk =   0.0312500
        k(    3) = (   0.0000000   0.0000000   0.4377595), wk =   0.0312500
        k(    4) = (   0.0000000   0.0000000   0.6566392), wk =   0.0312500
        k(    5) = (   0.0000000   0.2500000   0.0000000), wk =   0.0312500
        k(    6) = (   0.0000000   0.2500000   0.2188797), wk =   0.0312500
        k(    7) = (   0.0000000   0.2500000   0.4377595), wk =   0.0312500
        k(    8) = (   0.0000000   0.2500000   0.6566392), wk =   0.0312500
        k(    9) = (   0.0000000   0.5000000   0.0000000), wk =   0.0312500
        k(   10) = (   0.0000000   0.5000000   0.2188797), wk =   0.0312500
        k(   11) = (   0.0000000   0.5000000   0.4377595), wk =   0.0312500
        k(   12) = (   0.0000000   0.5000000   0.6566392), wk =   0.0312500
        k(   13) = (   0.0000000   0.7500000   0.0000000), wk =   0.0312500
        k(   14) = (   0.0000000   0.7500000   0.2188797), wk =   0.0312500
        k(   15) = (   0.0000000   0.7500000   0.4377595), wk =   0.0312500
        k(   16) = (   0.0000000   0.7500000   0.6566392), wk =   0.0312500
        k(   17) = (   0.2500000   0.0000000   0.0000000), wk =   0.0312500
        k(   18) = (   0.2500000   0.0000000   0.2188797), wk =   0.0312500
        k(   19) = (   0.2500000   0.0000000   0.4377595), wk =   0.0312500
        k(   20) = (   0.2500000   0.0000000   0.6566392), wk =   0.0312500
        k(   21) = (   0.2500000   0.2500000   0.0000000), wk =   0.0312500
        k(   22) = (   0.2500000   0.2500000   0.2188797), wk =   0.0312500
        k(   23) = (   0.2500000   0.2500000   0.4377595), wk =   0.0312500
        k(   24) = (   0.2500000   0.2500000   0.6566392), wk =   0.0312500
        k(   25) = (   0.2500000   0.5000000   0.0000000), wk =   0.0312500
        k(   26) = (   0.2500000   0.5000000   0.2188797), wk =   0.0312500
        k(   27) = (   0.2500000   0.5000000   0.4377595), wk =   0.0312500
        k(   28) = (   0.2500000   0.5000000   0.6566392), wk =   0.0312500
        k(   29) = (   0.2500000   0.7500000   0.0000000), wk =   0.0312500
        k(   30) = (   0.2500000   0.7500000   0.2188797), wk =   0.0312500
        k(   31) = (   0.2500000   0.7500000   0.4377595), wk =   0.0312500
        k(   32) = (   0.2500000   0.7500000   0.6566392), wk =   0.0312500
        k(   33) = (   0.5000000   0.0000000   0.0000000), wk =   0.0312500
        k(   34) = (   0.5000000   0.0000000   0.2188797), wk =   0.0312500
        k(   35) = (   0.5000000   0.0000000   0.4377595), wk =   0.0312500
        k(   36) = (   0.5000000   0.0000000   0.6566392), wk =   0.0312500
        k(   37) = (   0.5000000   0.2500000   0.0000000), wk =   0.0312500
        k(   38) = (   0.5000000   0.2500000   0.2188797), wk =   0.0312500
        k(   39) = (   0.5000000   0.2500000   0.4377595), wk =   0.0312500
        k(   40) = (   0.5000000   0.2500000   0.6566392), wk =   0.0312500
        k(   41) = (   0.5000000   0.5000000   0.0000000), wk =   0.0312500
        k(   42) = (   0.5000000   0.5000000   0.2188797), wk =   0.0312500
        k(   43) = (   0.5000000   0.5000000   0.4377595), wk =   0.0312500
        k(   44) = (   0.5000000   0.5000000   0.6566392), wk =   0.0312500
        k(   45) = (   0.5000000   0.7500000   0.0000000), wk =   0.0312500
        k(   46) = (   0.5000000   0.7500000   0.2188797), wk =   0.0312500
        k(   47) = (   0.5000000   0.7500000   0.4377595), wk =   0.0312500
        k(   48) = (   0.5000000   0.7500000   0.6566392), wk =   0.0312500
        k(   49) = (   0.7500000   0.0000000   0.0000000), wk =   0.0312500
        k(   50) = (   0.7500000   0.0000000   0.2188797), wk =   0.0312500
        k(   51) = (   0.7500000   0.0000000   0.4377595), wk =   0.0312500
        k(   52) = (   0.7500000   0.0000000   0.6566392), wk =   0.0312500
        k(   53) = (   0.7500000   0.2500000   0.0000000), wk =   0.0312500
        k(   54) = (   0.7500000   0.2500000   0.2188797), wk =   0.0312500
        k(   55) = (   0.7500000   0.2500000   0.4377595), wk =   0.0312500
        k(   56) = (   0.7500000   0.2500000   0.6566392), wk =   0.0312500
        k(   57) = (   0.7500000   0.5000000   0.0000000), wk =   0.0312500
        k(   58) = (   0.7500000   0.5000000   0.2188797), wk =   0.0312500
        k(   59) = (   0.7500000   0.5000000   0.4377595), wk =   0.0312500
        k(   60) = (   0.7500000   0.5000000   0.6566392), wk =   0.0312500
        k(   61) = (   0.7500000   0.7500000   0.0000000), wk =   0.0312500
        k(   62) = (   0.7500000   0.7500000   0.2188797), wk =   0.0312500
        k(   63) = (   0.7500000   0.7500000   0.4377595), wk =   0.0312500
        k(   64) = (   0.7500000   0.7500000   0.6566392), wk =   0.0312500

     Initial potential from superposition of free atoms

     starting charge   43.78536, renormalised to   44.00000
     Starting wfcs are random

     Self-consistent Calculation

     iteration #  1     ecut=   150.00 Ry     beta= 0.70
     Davidson diagonalization with overlap
     ethr =  1.00E-02,  avg # of iterations = 10.8

     total energy              =    -323.30508260 Ry
     estimated scf accuracy    <      66.66584809 Ry

[...]

     total energy              =    -324.04313852 Ry
     estimated scf accuracy    <       0.00000001 Ry

     iteration # 20     ecut=   150.00 Ry     beta= 0.70
     Davidson diagonalization with overlap
     ethr =  2.49E-11,  avg # of iterations =  4.8

     End of self-consistent calculation

          k = 0.0000 0.0000 0.0000 ( 13625 PWs)   bands (ev):

   -49.2547 -24.3960 -24.2129 -24.2129  -9.1038  -8.0542  -7.7012  -4.6812
    -4.6812  -4.6237  -4.5903  -4.5686   3.7203   6.2666   6.2666   7.0018
     7.7468   7.7468   8.0459   8.1792   8.9230   8.9230

[...]

          k = 0.7500 0.7500 0.6566 ( 13582 PWs)   bands (ev):

   -49.2527 -24.4001 -24.2514 -24.2513  -8.5182  -8.0042  -7.6716  -4.6842
    -4.6537  -4.6207  -4.5320  -4.4753   2.8470   5.7897   5.8162   6.3393
     7.1581   7.1853   8.2870   8.6400   9.0290   9.2464

     highest occupied level (ev):    10.3913

!    total energy              =    -324.04313852 Ry
     estimated scf accuracy    <          9.9E-09 Ry

     The total energy is the sum of the following terms:
     one-electron contribution =     -85.33207976 Ry
     hartree contribution      =      68.68799187 Ry
     xc contribution           =     -49.02986243 Ry
     ewald contribution        =    -258.36918820 Ry

     convergence has been achieved in  20 iterations
     Writing meta-gga kinetic term

     Writing output data file pwscf/pbtio3.save/
     Writing meta-gga kinetic term

     General routines

     Parallel routines

   This run was terminated on:   3:26:34   8Sep2021

   JOB DONE.