     Program PWSCF v.6.7MaX starts on  8Sep2021 at  2:35:23

     R & G space division:  proc/nbgrp/npool/nimage =      40
     Reading input from relax-sym.in

     Current dimensions of program PWSCF are:
     Max number of different atomic species (ntypx) = 10
     Max number of k-points (npk) =  40000
     Max angular momentum in pseudopotentials (lmaxx) =  3
     Message from routine read_pp_mesh:
     mesh size missing, using the one in header
     Message from routine read_pp_mesh:
     mesh size missing, using the one in header
     Message from routine read_pp_mesh:
     mesh size missing, using the one in header

     IMPORTANT: XC functional enforced from input :
     Exchange-correlation= SCAN
                           (   0   0   0   0   0 263 267)
     Any further DFT definition will be discarded
     Please, verify this is what you really want

     Subspace diagonalization in iterative solution of the eigenvalue problem:
     a serial algorithm will be used

     Message from routine setup:
     using ibrav=0 with symmetry is DISCOURAGED, use correct ibrav instead

     bravais-lattice index     =            0
     lattice parameter (alat)  =       7.4644  a.u.
     unit-cell volume          =     415.8990 (a.u.)^3
     number of atoms/cell      =            5
     number of atomic types    =            3
     number of electrons       =        44.00
     number of Kohn-Sham states=           22
     kinetic-energy cutoff     =     150.0000  Ry
     charge density cutoff     =     600.0000  Ry
     scf convergence threshold =      1.0E-08
     mixing beta               =       0.7000
     number of iterations used =            8  plain     mixing
     energy convergence thresh.=      1.0E-06
     force convergence thresh. =      1.0E-05
     press convergence thresh. =      5.0E-01
     Exchange-correlation= SCAN
                           (   0   0   0   0   0 263 267)
     nstep                     =           50

     celldm(1)=   7.464418  celldm(2)=   0.000000  celldm(3)=   0.000000
     celldm(4)=   0.000000  celldm(5)=   0.000000  celldm(6)=   0.000000

     crystal axes: (cart. coord. in units of alat)
               a(1) = (   1.000000   0.000000   0.000000 )
               a(2) = (   0.000000   1.000000   0.000000 )
               a(3) = (   0.000000   0.000000   1.000000 )

     reciprocal axes: (cart. coord. in units 2 pi/alat)
               b(1) = (  1.000000  0.000000  0.000000 )
               b(2) = (  0.000000  1.000000  0.000000 )
               b(3) = (  0.000000  0.000000  1.000000 )

     PseudoPot. # 1 for Pb read from file:
     /home/pinchenx/data.gpfs/softwares/QuantumEspresso/pseudos/Pb_ONCV_PBE-1.2.upf
     MD5 check sum: 7f27c247474026287e0dbe0f3167d60b
     Pseudo is Norm-conserving, Zval = 14.0
     Generated using ONCVPSP code by D. R. Hamann
     Using radial grid of  602 points,  8 beta functions with:
                l(1) =   0
                l(2) =   0
                l(3) =   1
                l(4) =   1
                l(5) =   2
                l(6) =   2
                l(7) =   3
                l(8) =   3

     PseudoPot. # 2 for Ti read from file:
     /home/pinchenx/data.gpfs/softwares/QuantumEspresso/pseudos/Ti_ONCV_PBE-1.2.upf
     MD5 check sum: 1aea57736bd12dcfee93c97d0b9b5968
     Pseudo is Norm-conserving, Zval = 12.0
     Generated using ONCVPSP code by D. R. Hamann
     Using radial grid of  602 points,  6 beta functions with:
                l(1) =   0
                l(2) =   0
                l(3) =   1
                l(4) =   1
                l(5) =   2
                l(6) =   2

     PseudoPot. # 3 for O  read from file:
     /home/pinchenx/data.gpfs/softwares/QuantumEspresso/pseudos/O_ONCV_PBE-1.2.upf
     MD5 check sum: e36c48deb68f4e355fffe4602be2c42c
     Pseudo is Norm-conserving, Zval =  6.0
     Generated using ONCVPSP code by D. R. Hamann
     Using radial grid of  602 points,  4 beta functions with:
                l(1) =   0
                l(2) =   0
                l(3) =   1
                l(4) =   1

     atomic species   valence    mass     pseudopotential
        Pb            14.00   207.20000     Pb( 1.00)
        Ti            12.00    47.86700     Ti( 1.00)
        O              6.00    15.99900     O ( 1.00)

     48 Sym. Ops., with inversion, found

   Cartesian axes

     site n.     atom                  positions (alat units)
         1           Pb  tau(   1) = (   0.0000000   0.0000000   0.0000000  )
         2           Ti  tau(   2) = (   0.5000000   0.5000000   0.5000000  )
         3           O   tau(   3) = (   0.5000000   0.5000000   0.0000000  )
         4           O   tau(   4) = (   0.0000000   0.5000000   0.5000000  )
         5           O   tau(   5) = (   0.5000000   0.0000000   0.5000000  )

     number of k points=    10
                       cart. coord. in units 2pi/alat
        k(    1) = (   0.0000000   0.0000000   0.0000000), wk =   0.0312500
        k(    2) = (   0.0000000   0.0000000   0.2500000), wk =   0.1875000
        k(    3) = (   0.0000000   0.0000000  -0.5000000), wk =   0.0937500
        k(    4) = (   0.0000000   0.2500000   0.2500000), wk =   0.3750000
        k(    5) = (   0.0000000   0.2500000  -0.5000000), wk =   0.3750000
        k(    6) = (   0.0000000  -0.5000000  -0.5000000), wk =   0.0937500
        k(    7) = (   0.2500000   0.2500000   0.2500000), wk =   0.2500000
        k(    8) = (   0.2500000   0.2500000  -0.5000000), wk =   0.3750000
        k(    9) = (   0.2500000  -0.5000000  -0.5000000), wk =   0.1875000
        k(   10) = (  -0.5000000  -0.5000000  -0.5000000), wk =   0.0312500

     Initial potential from superposition of free atoms

     starting charge   43.78536, renormalised to   44.00000
     Starting wfcs are random

     Self-consistent Calculation

     iteration #  1     ecut=   150.00 Ry     beta= 0.70
     Davidson diagonalization with overlap
     ethr =  1.00E-02,  avg # of iterations = 11.1

     total energy              =    -323.28837296 Ry
     estimated scf accuracy    <      66.95577367 Ry

[...]

     End of self-consistent calculation

          k = 0.0000 0.0000 0.0000 ( 12965 PWs)   bands (ev):

   -48.7067 -23.6371 -23.6371 -23.6371  -8.0808  -6.9714  -6.9714  -4.0036
    -4.0036  -4.0036  -3.9713  -3.9713   4.9266   7.1586   7.1586   7.1586
     9.6069   9.6069   9.6069  10.0704  10.0704  10.0704

[...]

          k =-0.5000-0.5000-0.5000 ( 12856 PWs)   bands (ev):

[...]

     highest occupied level (ev):    11.0725

!    total energy              =    -324.03229250 Ry
     estimated scf accuracy    <          4.0E-09 Ry

     The total energy is the sum of the following terms:
     one-electron contribution =     -68.53869248 Ry
     hartree contribution      =      61.59665174 Ry
     xc contribution           =     -48.96245351 Ry
     ewald contribution        =    -268.12779826 Ry

     convergence has been achieved in  24 iterations
     Writing meta-gga kinetic term

     Forces acting on atoms (cartesian axes, Ry/au):

     atom    1 type  1   force =     0.00000000   -0.00000000    0.00000000
     atom    2 type  2   force =     0.00000000    0.00000000    0.00000000
     atom    3 type  3   force =     0.00000000    0.00000000    0.00000000
     atom    4 type  3   force =     0.00000000    0.00000000    0.00000000
     atom    5 type  3   force =     0.00000000    0.00000000    0.00000000

     Total force =     0.000000     Total SCF correction =     0.000000

     Computing stress (Cartesian axis) and pressure

          total   stress  (Ry/bohr**3)                   (kbar)     P=      -36.34
  -0.00024703   0.00000000   0.00000000          -36.34        0.00        0.00
   0.00000000  -0.00024703   0.00000000            0.00      -36.34        0.00
   0.00000000   0.00000000  -0.00024703            0.00        0.00      -36.34

     BFGS Geometry Optimization
     Energy error            =      0.0E+00
     Gradient error          =      6.6E-32
     Cell gradient error     =      2.5E-04

     number of scf cycles    =   1
     number of bfgs steps    =   0

     enthalpy new            =    -324.0322925032 Ry

     new trust radius        =       0.0251893466 bohr
     new conv_thr            =       0.0000000100 Ry

     new unit-cell volume =    408.24098 a.u.^3 (    60.49507 Ang^3 )
     density =      8.31885 g/cm^3

CELL_PARAMETERS (angstrom)
   3.925605604   0.000000000   0.000000000
   0.000000000   3.925605604   0.000000000
   0.000000000   0.000000000   3.925605604

ATOMIC_POSITIONS (angstrom)
Pb            0.0000000000       -0.0000000000        0.0000000000
Ti            1.9628028022        1.9628028022        1.9628028022
O             1.9628028022        1.9628028022        0.0000000000
O             0.0000000000        1.9628028022        1.9628028022
O             1.9628028022        0.0000000000        1.9628028022

     Writing output data file ./pwscf.save/
     NEW-OLD atomic charge density approx. for the potential
     extrapolated charge   43.17865, renormalised to   44.00000

[...]

     Energy error            =      9.9E-04
     Gradient error          =      1.3E-31
     Cell gradient error     =      8.5E-06

[...]

     enthalpy old            =    -324.0322925032 Ry
     enthalpy new            =    -324.0332856338 Ry

     CASE: enthalpy_new < enthalpy_old

[...]

     number of scf cycles    =   3
     number of bfgs steps    =   2

     enthalpy old            =    -324.0332856338 Ry
     enthalpy new            =    -324.0332867171 Ry

     CASE: enthalpy_new < enthalpy_old

     small trust_radius: resetting bfgs history

     new trust radius        =       0.0000300109 bohr
     new conv_thr            =            1.0E-10 Ry

     new unit-cell volume =    407.98368 a.u.^3 (    60.45694 Ang^3 )
     density =      8.32410 g/cm^3

[...]

ATOMIC_POSITIONS (angstrom)
Pb            0.0000000000       -0.0000000000       -0.0000000000
Ti            1.9623903517        1.9623903517        1.9623903517
O             1.9623903517        1.9623903517        0.0000000000
O             0.0000000000        1.9623903517        1.9623903517
O             1.9623903517        0.0000000000        1.9623903517

     Writing output data file ./pwscf.save/
     NEW-OLD atomic charge density approx. for the potential
     extrapolated charge   44.00098, renormalised to   44.00000

[...]

     Threshold (ethr) on eigenvalues was too large:
     Diagonalizing with lowered threshold

     Davidson diagonalization with overlap
     ethr =  7.20E-10,  avg # of iterations =  1.0

[...]

     Energy error            =      1.4E-09
     Gradient error          =      1.1E-30
     Cell gradient error     =      3.3E-08

     bfgs converged in   4 scf cycles and   3 bfgs steps
     (criteria: energy <  1.0E-06 Ry, force <  1.0E-05Ry/Bohr, cell <  5.0E-01kbar)

     End of BFGS Geometry Optimization

     Final enthalpy =    -324.0332867185 Ry

     File ./pwscf.bfgs deleted, as requested
Begin final coordinates
     new unit-cell volume =    407.98368 a.u.^3 (    60.45694 Ang^3 )
     density =      8.32410 g/cm^3

CELL_PARAMETERS (angstrom)
   3.924780703   0.000000000   0.000000000
   0.000000000   3.924780703   0.000000000
   0.000000000   0.000000000   3.924780703

ATOMIC_POSITIONS (angstrom)
Pb            0.0000000000       -0.0000000000       -0.0000000000
Ti            1.9623903517        1.9623903517        1.9623903517
O             1.9623903517        1.9623903517        0.0000000000
O             0.0000000000        1.9623903517        1.9623903517
O             1.9623903517        0.0000000000        1.9623903517
End final coordinates

     Writing output data file ./pwscf.save/

     Final scf calculation at the relaxed structure.
     The G-vectors are recalculated for the final unit cell
     Results may differ from those at the preceding step.

     bravais-lattice index     =            0
     lattice parameter (alat)  =       7.4644  a.u.
     unit-cell volume          =     407.9837 (a.u.)^3
     number of atoms/cell      =            5
     number of atomic types    =            3
     number of electrons       =        44.00
     number of Kohn-Sham states=           22
     kinetic-energy cutoff     =     150.0000  Ry
     charge density cutoff     =     600.0000  Ry
     scf convergence threshold =      1.0E-10
     mixing beta               =       0.7000
     number of iterations used =            8  plain     mixing
     press convergence thresh. =      5.0E-01
     Exchange-correlation= SCAN
                           (   0   0   0   0   0 263 267)

     celldm(1)=   7.464418  celldm(2)=   0.000000  celldm(3)=   0.000000
     celldm(4)=   0.000000  celldm(5)=   0.000000  celldm(6)=   0.000000

     crystal axes: (cart. coord. in units of alat)
               a(1) = (   0.993615   0.000000   0.000000 )
               a(2) = (   0.000000   0.993615   0.000000 )
               a(3) = (   0.000000   0.000000   0.993615 )

     reciprocal axes: (cart. coord. in units 2 pi/alat)
               b(1) = (  1.006426  0.000000  0.000000 )
               b(2) = (  0.000000  1.006426  0.000000 )
               b(3) = (  0.000000  0.000000  1.006426 )

     PseudoPot. # 1 for Pb read from file:
     /home/pinchenx/data.gpfs/softwares/QuantumEspresso/pseudos/Pb_ONCV_PBE-1.2.upf
     MD5 check sum: 7f27c247474026287e0dbe0f3167d60b
     Pseudo is Norm-conserving, Zval = 14.0
     Generated using ONCVPSP code by D. R. Hamann
     Using radial grid of  602 points,  8 beta functions with:
                l(1) =   0
                l(2) =   0
                l(3) =   1
                l(4) =   1
                l(5) =   2
                l(6) =   2
                l(7) =   3
                l(8) =   3

     PseudoPot. # 2 for Ti read from file:
     /home/pinchenx/data.gpfs/softwares/QuantumEspresso/pseudos/Ti_ONCV_PBE-1.2.upf
     MD5 check sum: 1aea57736bd12dcfee93c97d0b9b5968
     Pseudo is Norm-conserving, Zval = 12.0
     Generated using ONCVPSP code by D. R. Hamann
     Using radial grid of  602 points,  6 beta functions with:
                l(1) =   0
                l(2) =   0
                l(3) =   1
                l(4) =   1
                l(5) =   2
                l(6) =   2

     PseudoPot. # 3 for O  read from file:
     /home/pinchenx/data.gpfs/softwares/QuantumEspresso/pseudos/O_ONCV_PBE-1.2.upf
     MD5 check sum: e36c48deb68f4e355fffe4602be2c42c
     Pseudo is Norm-conserving, Zval =  6.0
     Generated using ONCVPSP code by D. R. Hamann
     Using radial grid of  602 points,  4 beta functions with:
                l(1) =   0
                l(2) =   0
                l(3) =   1
                l(4) =   1

     atomic species   valence    mass     pseudopotential
        Pb            14.00   207.20000     Pb( 1.00)
        Ti            12.00    47.86700     Ti( 1.00)
        O              6.00    15.99900     O ( 1.00)

     48 Sym. Ops., with inversion, found

   Cartesian axes

     site n.     atom                  positions (alat units)
         1           Pb  tau(   1) = (   0.0000000  -0.0000000  -0.0000000  )
         2           Ti  tau(   2) = (   0.4968077   0.4968077   0.4968077  )
         3           O   tau(   3) = (   0.4968077   0.4968077   0.0000000  )
         4           O   tau(   4) = (   0.0000000   0.4968077   0.4968077  )
         5           O   tau(   5) = (   0.4968077   0.0000000   0.4968077  )

     number of k points=    10
                       cart. coord. in units 2pi/alat
        k(    1) = (   0.0000000   0.0000000   0.0000000), wk =   0.0312500
        k(    2) = (   0.0000000   0.0000000   0.2516064), wk =   0.1875000
        k(    3) = (   0.0000000   0.0000000  -0.5032128), wk =   0.0937500
        k(    4) = (   0.0000000   0.2516064   0.2516064), wk =   0.3750000
        k(    5) = (   0.0000000   0.2516064  -0.5032128), wk =   0.3750000
        k(    6) = (   0.0000000  -0.5032128  -0.5032128), wk =   0.0937500
        k(    7) = (   0.2516064   0.2516064   0.2516064), wk =   0.2500000
        k(    8) = (   0.2516064   0.2516064  -0.5032128), wk =   0.3750000
        k(    9) = (   0.2516064  -0.5032128  -0.5032128), wk =   0.1875000
        k(   10) = (  -0.5032128  -0.5032128  -0.5032128), wk =   0.0312500

     Initial potential from superposition of free atoms

     starting charge   43.78536, renormalised to   44.00000
     Starting wfcs are random

     Self-consistent Calculation

[...]

     total energy              =    -324.03325833 Ry
     estimated scf accuracy    <          7.8E-09 Ry

     iteration # 53     ecut=   150.00 Ry     beta= 0.70
     Davidson diagonalization with overlap
     ethr =  2.39E-13,  avg # of iterations =  6.0

     End of self-consistent calculation

[...]

          k = 0.2516-0.5032-0.5032 ( 12648 PWs)   bands (ev):

[...]

          k =-0.5032-0.5032-0.5032 ( 12712 PWs)   bands (ev):

   -48.2979 -23.3174 -23.3174 -23.3174  -6.4586  -6.4586  -6.4586  -3.5890
    -3.5890  -3.4544  -3.4544  -3.4544   5.5536   5.8623   5.8623   5.8623
     6.2974   6.8322   6.8322  11.0582  11.0582  11.0582

     highest occupied level (ev):    11.4487

!    total energy              =    -324.03325833 Ry
     estimated scf accuracy    <          2.6E-12 Ry

     The total energy is the sum of the following terms:
     one-electron contribution =     -66.05538151 Ry
     hartree contribution      =      60.90468175 Ry
     xc contribution           =     -49.03186291 Ry
     ewald contribution        =    -269.85069565 Ry

     convergence has been achieved in  53 iterations
     Writing meta-gga kinetic term

     Forces acting on atoms (cartesian axes, Ry/au):

     atom    1 type  1   force =     0.00000000    0.00000000    0.00000000
     atom    2 type  2   force =     0.00000000    0.00000000    0.00000000
     atom    3 type  3   force =     0.00000000    0.00000000    0.00000000
     atom    4 type  3   force =     0.00000000    0.00000000    0.00000000
     atom    5 type  3   force =     0.00000000    0.00000000    0.00000000

     Total force =     0.000000     Total SCF correction =     0.000000

     Computing stress (Cartesian axis) and pressure

          total   stress  (Ry/bohr**3)                   (kbar)     P=        0.03
   0.00000020   0.00000000   0.00000000            0.03        0.00        0.00
   0.00000000   0.00000020   0.00000000            0.00        0.03        0.00
   0.00000000   0.00000000   0.00000020            0.00        0.00        0.03

     Writing output data file ./pwscf.save/
     Writing meta-gga kinetic term

     General routines

     Parallel routines

   This run was terminated on:   2:36:43   8Sep2021

   JOB DONE.